
(set-logic HORN)
(declare-datatypes ((Bool_394 0)) (((false_394) (true_394))))
(declare-fun diseqBool_185 (Bool_394 Bool_394) Bool)
(declare-fun isfalse_185 (Bool_394) Bool)
(declare-fun istrue_185 (Bool_394) Bool)
(assert (isfalse_185 false_394))
(assert (istrue_185 true_394))
(assert (diseqBool_185 false_394 true_394))
(assert (diseqBool_185 true_394 false_394))
(declare-fun and_396 (Bool_394 Bool_394 Bool_394) Bool)
(declare-fun or_407 (Bool_394 Bool_394 Bool_394) Bool)
(declare-fun hence_394 (Bool_394 Bool_394 Bool_394) Bool)
(declare-fun not_399 (Bool_394 Bool_394) Bool)
(assert (and_396 false_394 false_394 false_394))
(assert (and_396 false_394 true_394 false_394))
(assert (and_396 false_394 false_394 true_394))
(assert (and_396 true_394 true_394 true_394))
(assert (or_407 false_394 false_394 false_394))
(assert (or_407 true_394 true_394 false_394))
(assert (or_407 true_394 false_394 true_394))
(assert (or_407 true_394 true_394 true_394))
(assert (hence_394 true_394 false_394 false_394))
(assert (hence_394 false_394 true_394 false_394))
(assert (hence_394 true_394 false_394 true_394))
(assert (hence_394 true_394 true_394 true_394))
(assert (not_399 true_394 false_394))
(assert (not_399 false_394 true_394))
(declare-datatypes ((T_12 0)) (((A_76) (B_70) (C_40))))
(declare-fun diseqT_12 (T_12 T_12) Bool)
(declare-fun isA_19 (T_12) Bool)
(declare-fun isB_19 (T_12) Bool)
(declare-fun isC_19 (T_12) Bool)
(assert (isA_19 A_76))
(assert (isB_19 B_70))
(assert (isC_19 C_40))
(assert (diseqT_12 A_76 B_70))
(assert (diseqT_12 A_76 C_40))
(assert (diseqT_12 B_70 A_76))
(assert (diseqT_12 C_40 A_76))
(assert (diseqT_12 B_70 C_40))
(assert (diseqT_12 C_40 B_70))
(declare-datatypes ((list_317 0)) (((nil_356) (cons_314 (head_628 T_12) (tail_631 list_317)))))
(declare-fun diseqlist_314 (list_317 list_317) Bool)
(declare-fun head_629 (T_12 list_317) Bool)
(declare-fun tail_632 (list_317 list_317) Bool)
(declare-fun isnil_356 (list_317) Bool)
(declare-fun iscons_314 (list_317) Bool)
(assert (forall ((x_70466 T_12) (x_70467 list_317))
	(head_629 x_70466 (cons_314 x_70466 x_70467))))
(assert (forall ((x_70466 T_12) (x_70467 list_317))
	(tail_632 x_70467 (cons_314 x_70466 x_70467))))
(assert (isnil_356 nil_356))
(assert (forall ((x_70469 T_12) (x_70470 list_317))
	(iscons_314 (cons_314 x_70469 x_70470))))
(assert (forall ((x_70471 T_12) (x_70472 list_317))
	(diseqlist_314 nil_356 (cons_314 x_70471 x_70472))))
(assert (forall ((x_70473 T_12) (x_70474 list_317))
	(diseqlist_314 (cons_314 x_70473 x_70474) nil_356)))
(assert (forall ((x_70475 T_12) (x_70476 list_317) (x_70477 T_12) (x_70478 list_317))
	(=> (diseqT_12 x_70475 x_70477) (diseqlist_314 (cons_314 x_70475 x_70476) (cons_314 x_70477 x_70478)))))
(assert (forall ((x_70475 T_12) (x_70476 list_317) (x_70477 T_12) (x_70478 list_317))
	(=> (diseqlist_314 x_70476 x_70478) (diseqlist_314 (cons_314 x_70475 x_70476) (cons_314 x_70477 x_70478)))))
(declare-datatypes ((R_513 0)) (((Nil_357) (Eps_52) (Atom_26 (projAtom_52 T_12)) (x_70416 (proj_124 R_513) (proj_125 R_513)) (x_70417 (proj_126 R_513) (proj_127 R_513)) (Star_26 (projStar_52 R_513)))))
(declare-fun diseqR_26 (R_513 R_513) Bool)
(declare-fun projAtom_53 (T_12 R_513) Bool)
(declare-fun proj_128 (R_513 R_513) Bool)
(declare-fun proj_129 (R_513 R_513) Bool)
(declare-fun proj_130 (R_513 R_513) Bool)
(declare-fun proj_131 (R_513 R_513) Bool)
(declare-fun projStar_53 (R_513 R_513) Bool)
(declare-fun isNil_357 (R_513) Bool)
(declare-fun isEps_26 (R_513) Bool)
(declare-fun isAtom_26 (R_513) Bool)
(declare-fun isx_45 (R_513) Bool)
(declare-fun isx_46 (R_513) Bool)
(declare-fun isStar_26 (R_513) Bool)
(assert (forall ((x_70481 T_12))
	(projAtom_53 x_70481 (Atom_26 x_70481))))
(assert (forall ((x_70483 R_513) (x_70484 R_513))
	(proj_128 x_70483 (x_70416 x_70483 x_70484))))
(assert (forall ((x_70483 R_513) (x_70484 R_513))
	(proj_129 x_70484 (x_70416 x_70483 x_70484))))
(assert (forall ((x_70486 R_513) (x_70487 R_513))
	(proj_130 x_70486 (x_70417 x_70486 x_70487))))
(assert (forall ((x_70486 R_513) (x_70487 R_513))
	(proj_131 x_70487 (x_70417 x_70486 x_70487))))
(assert (forall ((x_70489 R_513))
	(projStar_53 x_70489 (Star_26 x_70489))))
(assert (isNil_357 Nil_357))
(assert (isEps_26 Eps_52))
(assert (forall ((x_70491 T_12))
	(isAtom_26 (Atom_26 x_70491))))
(assert (forall ((x_70492 R_513) (x_70493 R_513))
	(isx_45 (x_70416 x_70492 x_70493))))
(assert (forall ((x_70494 R_513) (x_70495 R_513))
	(isx_46 (x_70417 x_70494 x_70495))))
(assert (forall ((x_70496 R_513))
	(isStar_26 (Star_26 x_70496))))
(assert (diseqR_26 Nil_357 Eps_52))
(assert (forall ((x_70497 T_12))
	(diseqR_26 Nil_357 (Atom_26 x_70497))))
(assert (forall ((x_70498 R_513) (x_70499 R_513))
	(diseqR_26 Nil_357 (x_70416 x_70498 x_70499))))
(assert (forall ((x_70500 R_513) (x_70501 R_513))
	(diseqR_26 Nil_357 (x_70417 x_70500 x_70501))))
(assert (forall ((x_70502 R_513))
	(diseqR_26 Nil_357 (Star_26 x_70502))))
(assert (diseqR_26 Eps_52 Nil_357))
(assert (forall ((x_70503 T_12))
	(diseqR_26 (Atom_26 x_70503) Nil_357)))
(assert (forall ((x_70504 R_513) (x_70505 R_513))
	(diseqR_26 (x_70416 x_70504 x_70505) Nil_357)))
(assert (forall ((x_70506 R_513) (x_70507 R_513))
	(diseqR_26 (x_70417 x_70506 x_70507) Nil_357)))
(assert (forall ((x_70508 R_513))
	(diseqR_26 (Star_26 x_70508) Nil_357)))
(assert (forall ((x_70509 T_12))
	(diseqR_26 Eps_52 (Atom_26 x_70509))))
(assert (forall ((x_70510 R_513) (x_70511 R_513))
	(diseqR_26 Eps_52 (x_70416 x_70510 x_70511))))
(assert (forall ((x_70512 R_513) (x_70513 R_513))
	(diseqR_26 Eps_52 (x_70417 x_70512 x_70513))))
(assert (forall ((x_70514 R_513))
	(diseqR_26 Eps_52 (Star_26 x_70514))))
(assert (forall ((x_70515 T_12))
	(diseqR_26 (Atom_26 x_70515) Eps_52)))
(assert (forall ((x_70516 R_513) (x_70517 R_513))
	(diseqR_26 (x_70416 x_70516 x_70517) Eps_52)))
(assert (forall ((x_70518 R_513) (x_70519 R_513))
	(diseqR_26 (x_70417 x_70518 x_70519) Eps_52)))
(assert (forall ((x_70520 R_513))
	(diseqR_26 (Star_26 x_70520) Eps_52)))
(assert (forall ((x_70521 T_12) (x_70522 R_513) (x_70523 R_513))
	(diseqR_26 (Atom_26 x_70521) (x_70416 x_70522 x_70523))))
(assert (forall ((x_70524 T_12) (x_70525 R_513) (x_70526 R_513))
	(diseqR_26 (Atom_26 x_70524) (x_70417 x_70525 x_70526))))
(assert (forall ((x_70527 T_12) (x_70528 R_513))
	(diseqR_26 (Atom_26 x_70527) (Star_26 x_70528))))
(assert (forall ((x_70529 R_513) (x_70530 R_513) (x_70531 T_12))
	(diseqR_26 (x_70416 x_70529 x_70530) (Atom_26 x_70531))))
(assert (forall ((x_70532 R_513) (x_70533 R_513) (x_70534 T_12))
	(diseqR_26 (x_70417 x_70532 x_70533) (Atom_26 x_70534))))
(assert (forall ((x_70535 R_513) (x_70536 T_12))
	(diseqR_26 (Star_26 x_70535) (Atom_26 x_70536))))
(assert (forall ((x_70537 R_513) (x_70538 R_513) (x_70539 R_513) (x_70540 R_513))
	(diseqR_26 (x_70416 x_70537 x_70538) (x_70417 x_70539 x_70540))))
(assert (forall ((x_70541 R_513) (x_70542 R_513) (x_70543 R_513))
	(diseqR_26 (x_70416 x_70541 x_70542) (Star_26 x_70543))))
(assert (forall ((x_70544 R_513) (x_70545 R_513) (x_70546 R_513) (x_70547 R_513))
	(diseqR_26 (x_70417 x_70544 x_70545) (x_70416 x_70546 x_70547))))
(assert (forall ((x_70548 R_513) (x_70549 R_513) (x_70550 R_513))
	(diseqR_26 (Star_26 x_70548) (x_70416 x_70549 x_70550))))
(assert (forall ((x_70551 R_513) (x_70552 R_513) (x_70553 R_513))
	(diseqR_26 (x_70417 x_70551 x_70552) (Star_26 x_70553))))
(assert (forall ((x_70554 R_513) (x_70555 R_513) (x_70556 R_513))
	(diseqR_26 (Star_26 x_70554) (x_70417 x_70555 x_70556))))
(assert (forall ((x_70557 T_12) (x_70558 T_12))
	(=> (diseqT_12 x_70557 x_70558) (diseqR_26 (Atom_26 x_70557) (Atom_26 x_70558)))))
(assert (forall ((x_70559 R_513) (x_70560 R_513) (x_70561 R_513) (x_70562 R_513))
	(=> (diseqR_26 x_70559 x_70561) (diseqR_26 (x_70416 x_70559 x_70560) (x_70416 x_70561 x_70562)))))
(assert (forall ((x_70559 R_513) (x_70560 R_513) (x_70561 R_513) (x_70562 R_513))
	(=> (diseqR_26 x_70560 x_70562) (diseqR_26 (x_70416 x_70559 x_70560) (x_70416 x_70561 x_70562)))))
(assert (forall ((x_70563 R_513) (x_70564 R_513) (x_70565 R_513) (x_70566 R_513))
	(=> (diseqR_26 x_70563 x_70565) (diseqR_26 (x_70417 x_70563 x_70564) (x_70417 x_70565 x_70566)))))
(assert (forall ((x_70563 R_513) (x_70564 R_513) (x_70565 R_513) (x_70566 R_513))
	(=> (diseqR_26 x_70564 x_70566) (diseqR_26 (x_70417 x_70563 x_70564) (x_70417 x_70565 x_70566)))))
(assert (forall ((x_70567 R_513) (x_70568 R_513))
	(=> (diseqR_26 x_70567 x_70568) (diseqR_26 (Star_26 x_70567) (Star_26 x_70568)))))
(declare-fun eps_53 (Bool_394 R_513) Bool)
(assert (forall ((y_2659 R_513))
	(eps_53 true_394 (Star_26 y_2659))))
(assert (forall ((x_70425 Bool_394) (x_70426 Bool_394) (x_70427 Bool_394) (r_514 R_513) (q_205 R_513))
	(=> (and (eps_53 x_70426 r_514) (eps_53 x_70427 q_205) (and_396 x_70425 x_70426 x_70427)) (eps_53 x_70425 (x_70417 r_514 q_205)))))
(assert (forall ((x_70428 Bool_394) (x_70429 Bool_394) (x_70430 Bool_394) (p_467 R_513) (q_206 R_513))
	(=> (and (eps_53 x_70429 p_467) (eps_53 x_70430 q_206) (or_407 x_70428 x_70429 x_70430)) (eps_53 x_70428 (x_70416 p_467 q_206)))))
(assert (eps_53 true_394 Eps_52))
(assert (forall ((x_70419 R_513) (x_70423 T_12))
	(eps_53 false_394 (Atom_26 x_70423))))
(assert (forall ((x_70419 R_513))
	(eps_53 false_394 Nil_357)))
(declare-fun step_26 (R_513 R_513 T_12) Bool)
(assert (forall ((x_70435 R_513) (p_468 R_513) (y_2660 T_12))
	(=> (step_26 x_70435 p_468 y_2660) (step_26 (x_70417 x_70435 (Star_26 p_468)) (Star_26 p_468) y_2660))))
(assert (forall ((x_70438 R_513) (x_70439 R_513) (r_515 R_513) (q_207 R_513) (y_2660 T_12))
	(=> (and (step_26 x_70438 r_515 y_2660) (step_26 x_70439 q_207 y_2660) (eps_53 true_394 r_515)) (step_26 (x_70416 (x_70417 x_70438 q_207) x_70439) (x_70417 r_515 q_207) y_2660))))
(assert (forall ((x_70442 R_513) (r_515 R_513) (q_207 R_513) (y_2660 T_12))
	(=> (and (step_26 x_70442 r_515 y_2660) (eps_53 false_394 r_515)) (step_26 (x_70416 (x_70417 x_70442 q_207) Nil_357) (x_70417 r_515 q_207) y_2660))))
(assert (forall ((x_70444 R_513) (x_70445 R_513) (p_469 R_513) (q_208 R_513) (y_2660 T_12))
	(=> (and (step_26 x_70444 p_469 y_2660) (step_26 x_70445 q_208 y_2660)) (step_26 (x_70416 x_70444 x_70445) (x_70416 p_469 q_208) y_2660))))
(assert (forall ((b_71 T_12))
	(step_26 Eps_52 (Atom_26 b_71) b_71)))
(assert (forall ((b_71 T_12) (y_2660 T_12))
	(=> (diseqT_12 b_71 y_2660) (step_26 Nil_357 (Atom_26 b_71) y_2660))))
(assert (forall ((x_70421 R_513) (y_2660 T_12))
	(step_26 Nil_357 Eps_52 y_2660)))
(assert (forall ((x_70421 R_513) (y_2660 T_12))
	(step_26 Nil_357 Nil_357 y_2660)))
(declare-fun rec_12 (Bool_394 R_513 list_317) Bool)
(assert (forall ((x_70450 Bool_394) (x_70451 R_513) (z_2368 T_12) (xs_786 list_317) (x_70422 R_513))
	(=> (and (step_26 x_70451 x_70422 z_2368) (rec_12 x_70450 x_70451 xs_786)) (rec_12 x_70450 x_70422 (cons_314 z_2368 xs_786)))))
(assert (forall ((x_70453 Bool_394) (x_70422 R_513))
	(=> (eps_53 x_70453 x_70422) (rec_12 x_70453 x_70422 nil_356))))
(assert (forall ((x_70455 Bool_394) (x_70456 Bool_394) (p_470 R_513) (q_209 R_513) (r_516 R_513) (s_551 list_317))
	(=> (and true (diseqBool_185 x_70455 x_70456) (rec_12 x_70455 (x_70416 p_470 (x_70417 q_209 r_516)) s_551) (rec_12 x_70456 (x_70417 (x_70416 p_470 q_209) r_516) s_551)) false)))
(check-sat)
